# 69035
param k := 6;
param n := 60;
param s := 1;
set E :=  (0,44) (0,54) (0,55) (1,3) (1,45) (2,18) (2,23) (2,30) (2,35) (2,43) (3,25) (3,36) (3,37) (3,46) (4,10) (4,20) (4,53) (5,7) (5,50) (6,26) (6,38) (6,49) (7,13) (8,33) (9,15) (9,22) (9,53) (10,27) (10,52) (11,35) (12,16) (13,34) (14,30) (14,52) (14,59) (15,22) (15,31) (16,39) (16,54) (17,34) (17,52) (18,49) (19,44) (20,29) (21,49) (23,37) (24,38) (25,39) (25,58) (27,28) (27,47) (32,37) (32,38) (33,44) (35,41) (38,39) (39,56) (40,51) (40,54) (41,57) (42,45) (48,51) (52,57);